p cnf 410 1924
c p weight 44 0 0
c p weight -44 1 0
c p weight 45 1.0 0
c p weight -45 1 0
c p weight 53 0 0
c p weight -53 1 0
c p weight 54 1.0 0
c p weight -54 1 0
c p weight 62 0 0
c p weight -62 1 0
c p weight 63 1.0 0
c p weight -63 1 0
c p weight 70 0 0
c p weight -70 1 0
c p weight 71 1.0 0
c p weight -71 1 0
c p weight 79 0 0
c p weight -79 1 0
c p weight 80 1.0 0
c p weight -80 1 0
c p weight 87 0 0
c p weight -87 1 0
c p weight 88 1.0 0
c p weight -88 1 0
c p weight 96 0 0
c p weight -96 1 0
c p weight 97 1.0 0
c p weight -97 1 0
c p weight 105 0 0
c p weight -105 1 0
c p weight 106 1.0 0
c p weight -106 1 0
c p weight 113 0 0
c p weight -113 1 0
c p weight 114 1.0 0
c p weight -114 1 0
c p weight 122 0 0
c p weight -122 1 0
c p weight 123 1.0 0
c p weight -123 1 0
c p weight 131 0 0
c p weight -131 1 0
c p weight 132 1.0 0
c p weight -132 1 0
c p weight 139 0 0
c p weight -139 1 0
c p weight 140 1.0 0
c p weight -140 1 0
c p weight 148 0 0
c p weight -148 1 0
c p weight 149 1.0 0
c p weight -149 1 0
c p weight 157 0 0
c p weight -157 1 0
c p weight 158 1.0 0
c p weight -158 1 0
c p weight 165 0 0
c p weight -165 1 0
c p weight 166 1.0 0
c p weight -166 1 0
c p weight 173 0 0
c p weight -173 1 0
c p weight 174 1.0 0
c p weight -174 1 0
c p weight 182 0 0
c p weight -182 1 0
c p weight 183 1.0 0
c p weight -183 1 0
c p weight 190 0 0
c p weight -190 1 0
c p weight 191 1.0 0
c p weight -191 1 0
c p weight 199 0 0
c p weight -199 1 0
c p weight 200 1.0 0
c p weight -200 1 0
c p weight 211 0 0
c p weight -211 1 0
c p weight 212 1.0 0
c p weight -212 1 0
c p weight 223 0 0
c p weight -223 1 0
c p weight 224 1.0 0
c p weight -224 1 0
c p weight 234 0 0
c p weight -234 1 0
c p weight 235 1.0 0
c p weight -235 1 0
c p weight 246 0 0
c p weight -246 1 0
c p weight 247 1.0 0
c p weight -247 1 0
c p weight 257 0 0
c p weight -257 1 0
c p weight 258 1.0 0
c p weight -258 1 0
c p weight 269 0 0
c p weight -269 1 0
c p weight 270 1.0 0
c p weight -270 1 0
c p weight 281 0 0
c p weight -281 1 0
c p weight 282 1.0 0
c p weight -282 1 0
c p weight 292 0 0
c p weight -292 1 0
c p weight 293 1.0 0
c p weight -293 1 0
c p weight 304 0 0
c p weight -304 1 0
c p weight 305 1.0 0
c p weight -305 1 0
c p weight 316 0 0
c p weight -316 1 0
c p weight 317 1.0 0
c p weight -317 1 0
c p weight 327 0 0
c p weight -327 1 0
c p weight 328 1.0 0
c p weight -328 1 0
c p weight 339 0 0
c p weight -339 1 0
c p weight 340 1.0 0
c p weight -340 1 0
c p weight 351 0 0
c p weight -351 1 0
c p weight 352 1.0 0
c p weight -352 1 0
c p weight 362 0 0
c p weight -362 1 0
c p weight 363 1.0 0
c p weight -363 1 0
c p weight 373 0 0
c p weight -373 1 0
c p weight 374 1.0 0
c p weight -374 1 0
c p weight 385 0 0
c p weight -385 1 0
c p weight 386 1.0 0
c p weight -386 1 0
c p weight 396 0 0
c p weight -396 1 0
c p weight 397 1.0 0
c p weight -397 1 0
c p weight 407 0 0
c p weight -407 1 0
c p weight 408 1.0 0
c p weight -408 1 0
40 -39 1 0
40 -39 2 0
-40 39 1 0
-40 39 2 0
40 39 -1 -2 0
-40 -39 -1 -2 0
41 1 -2 0
41 -1 2 0
-41 1 2 0
-41 -1 -2 0
42 43 -40 0
42 -40 41 0
-42 43 40 0
-42 40 41 0
42 -40 -1 0
-42 40 -1 0
42 -43 40 1 -41 0
-42 -43 -40 1 -41 0
43 -1 41 0
-43 1 41 0
-44 41 0
43 -44 -1 0
-43 -44 1 0
43 44 1 -41 0
-43 44 -1 -41 0
-45 41 0
43 -45 1 0
-43 -45 -1 0
43 45 -1 -41 0
-43 45 1 -41 0
46 -42 43 0
46 -42 41 0
-46 42 43 0
-46 42 41 0
46 42 -43 -41 0
-46 -42 -43 -41 0
47 43 -41 0
47 -43 41 0
-47 43 41 0
-47 -43 -41 0
48 46 -47 0
48 -46 47 0
-48 46 47 0
-48 -46 -47 0
49 -48 3 0
49 -48 4 0
-49 48 3 0
-49 48 4 0
49 48 -3 -4 0
-49 -48 -3 -4 0
50 3 -4 0
50 -3 4 0
-50 3 4 0
-50 -3 -4 0
51 52 -49 0
51 -49 50 0
-51 52 49 0
-51 49 50 0
51 -49 -3 0
-51 49 -3 0
51 -52 49 3 -50 0
-51 -52 -49 3 -50 0
52 -3 50 0
-52 3 50 0
-53 50 0
52 -53 -3 0
-52 -53 3 0
52 53 3 -50 0
-52 53 -3 -50 0
-54 50 0
52 -54 3 0
-52 -54 -3 0
52 54 -3 -50 0
-52 54 3 -50 0
55 -51 52 0
55 -51 50 0
-55 51 52 0
-55 51 50 0
55 51 -52 -50 0
-55 -51 -52 -50 0
56 52 -50 0
56 -52 50 0
-56 52 50 0
-56 -52 -50 0
57 55 -56 0
57 -55 56 0
-57 55 56 0
-57 -55 -56 0
58 -57 5 0
58 -57 6 0
-58 57 5 0
-58 57 6 0
58 57 -5 -6 0
-58 -57 -5 -6 0
59 5 -6 0
59 -5 6 0
-59 5 6 0
-59 -5 -6 0
60 61 -58 0
60 -58 59 0
-60 61 58 0
-60 58 59 0
60 -58 -5 0
-60 58 -5 0
60 -61 58 5 -59 0
-60 -61 -58 5 -59 0
61 -5 59 0
-61 5 59 0
-62 59 0
61 -62 -5 0
-61 -62 5 0
61 62 5 -59 0
-61 62 -5 -59 0
-63 59 0
61 -63 5 0
-61 -63 -5 0
61 63 -5 -59 0
-61 63 5 -59 0
64 -60 61 0
64 -60 59 0
-64 60 61 0
-64 60 59 0
64 60 -61 -59 0
-64 -60 -61 -59 0
65 61 -59 0
65 -61 59 0
-65 61 59 0
-65 -61 -59 0
66 -64 7 0
66 -64 8 0
-66 64 7 0
-66 64 8 0
66 64 -7 -8 0
-66 -64 -7 -8 0
67 7 -8 0
67 -7 8 0
-67 7 8 0
-67 -7 -8 0
68 69 -66 0
68 -66 67 0
-68 69 66 0
-68 66 67 0
68 -66 -7 0
-68 66 -7 0
68 -69 66 7 -67 0
-68 -69 -66 7 -67 0
69 -7 67 0
-69 7 67 0
-70 67 0
69 -70 -7 0
-69 -70 7 0
69 70 7 -67 0
-69 70 -7 -67 0
-71 67 0
69 -71 7 0
-69 -71 -7 0
69 71 -7 -67 0
-69 71 7 -67 0
72 -68 69 0
72 -68 67 0
-72 68 69 0
-72 68 67 0
72 68 -69 -67 0
-72 -68 -69 -67 0
73 69 -67 0
73 -69 67 0
-73 69 67 0
-73 -69 -67 0
74 72 -73 0
74 -72 73 0
-74 72 73 0
-74 -72 -73 0
75 -74 9 0
75 -74 10 0
-75 74 9 0
-75 74 10 0
75 74 -9 -10 0
-75 -74 -9 -10 0
76 9 -10 0
76 -9 10 0
-76 9 10 0
-76 -9 -10 0
77 78 -75 0
77 -75 76 0
-77 78 75 0
-77 75 76 0
77 -75 -9 0
-77 75 -9 0
77 -78 75 9 -76 0
-77 -78 -75 9 -76 0
78 -9 76 0
-78 9 76 0
-79 76 0
78 -79 -9 0
-78 -79 9 0
78 79 9 -76 0
-78 79 -9 -76 0
-80 76 0
78 -80 9 0
-78 -80 -9 0
78 80 -9 -76 0
-78 80 9 -76 0
81 -77 78 0
81 -77 76 0
-81 77 78 0
-81 77 76 0
81 77 -78 -76 0
-81 -77 -78 -76 0
82 78 -76 0
82 -78 76 0
-82 78 76 0
-82 -78 -76 0
83 -81 11 0
83 -81 12 0
-83 81 11 0
-83 81 12 0
83 81 -11 -12 0
-83 -81 -11 -12 0
84 11 -12 0
84 -11 12 0
-84 11 12 0
-84 -11 -12 0
85 86 -83 0
85 -83 84 0
-85 86 83 0
-85 83 84 0
85 -83 -11 0
-85 83 -11 0
85 -86 83 11 -84 0
-85 -86 -83 11 -84 0
86 -11 84 0
-86 11 84 0
-87 84 0
86 -87 -11 0
-86 -87 11 0
86 87 11 -84 0
-86 87 -11 -84 0
-88 84 0
86 -88 11 0
-86 -88 -11 0
86 88 -11 -84 0
-86 88 11 -84 0
89 -85 86 0
89 -85 84 0
-89 85 86 0
-89 85 84 0
89 85 -86 -84 0
-89 -85 -86 -84 0
90 86 -84 0
90 -86 84 0
-90 86 84 0
-90 -86 -84 0
91 89 -90 0
91 -89 90 0
-91 89 90 0
-91 -89 -90 0
92 -91 13 0
92 -91 14 0
-92 91 13 0
-92 91 14 0
92 91 -13 -14 0
-92 -91 -13 -14 0
93 13 -14 0
93 -13 14 0
-93 13 14 0
-93 -13 -14 0
94 95 -92 0
94 -92 93 0
-94 95 92 0
-94 92 93 0
94 -92 -13 0
-94 92 -13 0
94 -95 92 13 -93 0
-94 -95 -92 13 -93 0
95 -13 93 0
-95 13 93 0
-96 93 0
95 -96 -13 0
-95 -96 13 0
95 96 13 -93 0
-95 96 -13 -93 0
-97 93 0
95 -97 13 0
-95 -97 -13 0
95 97 -13 -93 0
-95 97 13 -93 0
98 -94 95 0
98 -94 93 0
-98 94 95 0
-98 94 93 0
98 94 -95 -93 0
-98 -94 -95 -93 0
99 95 -93 0
99 -95 93 0
-99 95 93 0
-99 -95 -93 0
100 98 -99 0
100 -98 99 0
-100 98 99 0
-100 -98 -99 0
101 -100 15 0
101 -100 16 0
-101 100 15 0
-101 100 16 0
101 100 -15 -16 0
-101 -100 -15 -16 0
102 15 -16 0
102 -15 16 0
-102 15 16 0
-102 -15 -16 0
103 104 -101 0
103 -101 102 0
-103 104 101 0
-103 101 102 0
103 -101 -15 0
-103 101 -15 0
103 -104 101 15 -102 0
-103 -104 -101 15 -102 0
104 -15 102 0
-104 15 102 0
-105 102 0
104 -105 -15 0
-104 -105 15 0
104 105 15 -102 0
-104 105 -15 -102 0
-106 102 0
104 -106 15 0
-104 -106 -15 0
104 106 -15 -102 0
-104 106 15 -102 0
107 -103 104 0
107 -103 102 0
-107 103 104 0
-107 103 102 0
107 103 -104 -102 0
-107 -103 -104 -102 0
108 104 -102 0
108 -104 102 0
-108 104 102 0
-108 -104 -102 0
109 -107 17 0
109 -107 18 0
-109 107 17 0
-109 107 18 0
109 107 -17 -18 0
-109 -107 -17 -18 0
110 17 -18 0
110 -17 18 0
-110 17 18 0
-110 -17 -18 0
111 112 -109 0
111 -109 110 0
-111 112 109 0
-111 109 110 0
111 -109 -17 0
-111 109 -17 0
111 -112 109 17 -110 0
-111 -112 -109 17 -110 0
112 -17 110 0
-112 17 110 0
-113 110 0
112 -113 -17 0
-112 -113 17 0
112 113 17 -110 0
-112 113 -17 -110 0
-114 110 0
112 -114 17 0
-112 -114 -17 0
112 114 -17 -110 0
-112 114 17 -110 0
115 -111 112 0
115 -111 110 0
-115 111 112 0
-115 111 110 0
115 111 -112 -110 0
-115 -111 -112 -110 0
116 112 -110 0
116 -112 110 0
-116 112 110 0
-116 -112 -110 0
117 115 -116 0
117 -115 116 0
-117 115 116 0
-117 -115 -116 0
118 -117 19 0
118 -117 20 0
-118 117 19 0
-118 117 20 0
118 117 -19 -20 0
-118 -117 -19 -20 0
119 19 -20 0
119 -19 20 0
-119 19 20 0
-119 -19 -20 0
120 121 -118 0
120 -118 119 0
-120 121 118 0
-120 118 119 0
120 -118 -19 0
-120 118 -19 0
120 -121 118 19 -119 0
-120 -121 -118 19 -119 0
121 -19 119 0
-121 19 119 0
-122 119 0
121 -122 -19 0
-121 -122 19 0
121 122 19 -119 0
-121 122 -19 -119 0
-123 119 0
121 -123 19 0
-121 -123 -19 0
121 123 -19 -119 0
-121 123 19 -119 0
124 -120 121 0
124 -120 119 0
-124 120 121 0
-124 120 119 0
124 120 -121 -119 0
-124 -120 -121 -119 0
125 121 -119 0
125 -121 119 0
-125 121 119 0
-125 -121 -119 0
126 124 -125 0
126 -124 125 0
-126 124 125 0
-126 -124 -125 0
127 -126 21 0
127 -126 22 0
-127 126 21 0
-127 126 22 0
127 126 -21 -22 0
-127 -126 -21 -22 0
128 21 -22 0
128 -21 22 0
-128 21 22 0
-128 -21 -22 0
129 130 -127 0
129 -127 128 0
-129 130 127 0
-129 127 128 0
129 -127 -21 0
-129 127 -21 0
129 -130 127 21 -128 0
-129 -130 -127 21 -128 0
130 -21 128 0
-130 21 128 0
-131 128 0
130 -131 -21 0
-130 -131 21 0
130 131 21 -128 0
-130 131 -21 -128 0
-132 128 0
130 -132 21 0
-130 -132 -21 0
130 132 -21 -128 0
-130 132 21 -128 0
133 -129 130 0
133 -129 128 0
-133 129 130 0
-133 129 128 0
133 129 -130 -128 0
-133 -129 -130 -128 0
134 130 -128 0
134 -130 128 0
-134 130 128 0
-134 -130 -128 0
135 -133 23 0
135 -133 24 0
-135 133 23 0
-135 133 24 0
135 133 -23 -24 0
-135 -133 -23 -24 0
136 23 -24 0
136 -23 24 0
-136 23 24 0
-136 -23 -24 0
137 138 -135 0
137 -135 136 0
-137 138 135 0
-137 135 136 0
137 -135 -23 0
-137 135 -23 0
137 -138 135 23 -136 0
-137 -138 -135 23 -136 0
138 -23 136 0
-138 23 136 0
-139 136 0
138 -139 -23 0
-138 -139 23 0
138 139 23 -136 0
-138 139 -23 -136 0
-140 136 0
138 -140 23 0
-138 -140 -23 0
138 140 -23 -136 0
-138 140 23 -136 0
141 -137 138 0
141 -137 136 0
-141 137 138 0
-141 137 136 0
141 137 -138 -136 0
-141 -137 -138 -136 0
142 138 -136 0
142 -138 136 0
-142 138 136 0
-142 -138 -136 0
143 141 -142 0
143 -141 142 0
-143 141 142 0
-143 -141 -142 0
144 -143 25 0
144 -143 26 0
-144 143 25 0
-144 143 26 0
144 143 -25 -26 0
-144 -143 -25 -26 0
145 25 -26 0
145 -25 26 0
-145 25 26 0
-145 -25 -26 0
146 147 -144 0
146 -144 145 0
-146 147 144 0
-146 144 145 0
146 -144 -25 0
-146 144 -25 0
146 -147 144 25 -145 0
-146 -147 -144 25 -145 0
147 -25 145 0
-147 25 145 0
-148 145 0
147 -148 -25 0
-147 -148 25 0
147 148 25 -145 0
-147 148 -25 -145 0
-149 145 0
147 -149 25 0
-147 -149 -25 0
147 149 -25 -145 0
-147 149 25 -145 0
150 -146 147 0
150 -146 145 0
-150 146 147 0
-150 146 145 0
150 146 -147 -145 0
-150 -146 -147 -145 0
151 147 -145 0
151 -147 145 0
-151 147 145 0
-151 -147 -145 0
152 150 -151 0
152 -150 151 0
-152 150 151 0
-152 -150 -151 0
153 -152 27 0
153 -152 28 0
-153 152 27 0
-153 152 28 0
153 152 -27 -28 0
-153 -152 -27 -28 0
154 27 -28 0
154 -27 28 0
-154 27 28 0
-154 -27 -28 0
155 156 -153 0
155 -153 154 0
-155 156 153 0
-155 153 154 0
155 -153 -27 0
-155 153 -27 0
155 -156 153 27 -154 0
-155 -156 -153 27 -154 0
156 -27 154 0
-156 27 154 0
-157 154 0
156 -157 -27 0
-156 -157 27 0
156 157 27 -154 0
-156 157 -27 -154 0
-158 154 0
156 -158 27 0
-156 -158 -27 0
156 158 -27 -154 0
-156 158 27 -154 0
159 -155 156 0
159 -155 154 0
-159 155 156 0
-159 155 154 0
159 155 -156 -154 0
-159 -155 -156 -154 0
160 156 -154 0
160 -156 154 0
-160 156 154 0
-160 -156 -154 0
161 -159 29 0
161 -159 30 0
-161 159 29 0
-161 159 30 0
161 159 -29 -30 0
-161 -159 -29 -30 0
162 29 -30 0
162 -29 30 0
-162 29 30 0
-162 -29 -30 0
163 164 -161 0
163 -161 162 0
-163 164 161 0
-163 161 162 0
163 -161 -29 0
-163 161 -29 0
163 -164 161 29 -162 0
-163 -164 -161 29 -162 0
164 -29 162 0
-164 29 162 0
-165 162 0
164 -165 -29 0
-164 -165 29 0
164 165 29 -162 0
-164 165 -29 -162 0
-166 162 0
164 -166 29 0
-164 -166 -29 0
164 166 -29 -162 0
-164 166 29 -162 0
167 -163 164 0
167 -163 162 0
-167 163 164 0
-167 163 162 0
167 163 -164 -162 0
-167 -163 -164 -162 0
168 164 -162 0
168 -164 162 0
-168 164 162 0
-168 -164 -162 0
169 -167 31 0
169 -167 32 0
-169 167 31 0
-169 167 32 0
169 167 -31 -32 0
-169 -167 -31 -32 0
170 31 -32 0
170 -31 32 0
-170 31 32 0
-170 -31 -32 0
171 172 -169 0
171 -169 170 0
-171 172 169 0
-171 169 170 0
171 -169 -31 0
-171 169 -31 0
171 -172 169 31 -170 0
-171 -172 -169 31 -170 0
172 -31 170 0
-172 31 170 0
-173 170 0
172 -173 -31 0
-172 -173 31 0
172 173 31 -170 0
-172 173 -31 -170 0
-174 170 0
172 -174 31 0
-172 -174 -31 0
172 174 -31 -170 0
-172 174 31 -170 0
175 -171 172 0
175 -171 170 0
-175 171 172 0
-175 171 170 0
175 171 -172 -170 0
-175 -171 -172 -170 0
176 172 -170 0
176 -172 170 0
-176 172 170 0
-176 -172 -170 0
177 175 -176 0
177 -175 176 0
-177 175 176 0
-177 -175 -176 0
178 -177 33 0
178 -177 34 0
-178 177 33 0
-178 177 34 0
178 177 -33 -34 0
-178 -177 -33 -34 0
179 33 -34 0
179 -33 34 0
-179 33 34 0
-179 -33 -34 0
180 181 -178 0
180 -178 179 0
-180 181 178 0
-180 178 179 0
180 -178 -33 0
-180 178 -33 0
180 -181 178 33 -179 0
-180 -181 -178 33 -179 0
181 -33 179 0
-181 33 179 0
-182 179 0
181 -182 -33 0
-181 -182 33 0
181 182 33 -179 0
-181 182 -33 -179 0
-183 179 0
181 -183 33 0
-181 -183 -33 0
181 183 -33 -179 0
-181 183 33 -179 0
184 -180 181 0
184 -180 179 0
-184 180 181 0
-184 180 179 0
184 180 -181 -179 0
-184 -180 -181 -179 0
185 181 -179 0
185 -181 179 0
-185 181 179 0
-185 -181 -179 0
186 -184 35 0
186 -184 36 0
-186 184 35 0
-186 184 36 0
186 184 -35 -36 0
-186 -184 -35 -36 0
187 35 -36 0
187 -35 36 0
-187 35 36 0
-187 -35 -36 0
188 189 -186 0
188 -186 187 0
-188 189 186 0
-188 186 187 0
188 -186 -35 0
-188 186 -35 0
188 -189 186 35 -187 0
-188 -189 -186 35 -187 0
189 -35 187 0
-189 35 187 0
-190 187 0
189 -190 -35 0
-189 -190 35 0
189 190 35 -187 0
-189 190 -35 -187 0
-191 187 0
189 -191 35 0
-189 -191 -35 0
189 191 -35 -187 0
-189 191 35 -187 0
192 -188 189 0
192 -188 187 0
-192 188 189 0
-192 188 187 0
192 188 -189 -187 0
-192 -188 -189 -187 0
193 189 -187 0
193 -189 187 0
-193 189 187 0
-193 -189 -187 0
194 192 -38 0
194 -192 38 0
-194 192 38 0
-194 -192 -38 0
195 -194 37 0
195 -194 38 0
-195 194 37 0
-195 194 38 0
195 194 -37 -38 0
-195 -194 -37 -38 0
196 37 -38 0
196 -37 38 0
-196 37 38 0
-196 -37 -38 0
197 198 -195 0
197 -195 196 0
-197 198 195 0
-197 195 196 0
197 -195 -37 0
-197 195 -37 0
197 -198 195 37 -196 0
-197 -198 -195 37 -196 0
198 -37 196 0
-198 37 196 0
-199 196 0
198 -199 -37 0
-198 -199 37 0
198 199 37 -196 0
-198 199 -37 -196 0
-200 196 0
198 -200 37 0
-198 -200 -37 0
198 200 -37 -196 0
-198 200 37 -196 0
201 -197 198 0
201 -197 196 0
-201 197 198 0
-201 197 196 0
201 197 -198 -196 0
-201 -197 -198 -196 0
202 198 -196 0
202 -198 196 0
-202 198 196 0
-202 -198 -196 0
203 -201 43 0
203 -201 202 0
-203 201 43 0
-203 201 202 0
203 -201 198 -47 0
203 -201 -198 47 0
-203 201 198 -47 0
-203 201 -198 47 0
203 201 -43 198 47 -202 0
203 201 -43 -198 -47 -202 0
-203 -201 -43 198 47 -202 0
-203 -201 -43 -198 -47 -202 0
205 43 -198 0
205 -43 198 0
-205 43 198 0
-205 -43 -198 0
204 47 -202 0
204 -47 202 0
-204 47 202 0
-204 -47 -202 0
206 203 -204 0
206 -203 204 0
-206 203 204 0
-206 -203 -204 0
207 -206 43 0
207 -206 204 0
-207 206 43 0
-207 206 204 0
207 206 -43 -204 0
-207 -206 -43 -204 0
208 43 -204 0
208 -43 204 0
-208 43 204 0
-208 -43 -204 0
209 210 -207 0
209 -207 208 0
-209 210 207 0
-209 207 208 0
209 -207 -43 0
-209 207 -43 0
209 -210 207 43 -208 0
-209 -210 -207 43 -208 0
210 -43 208 0
-210 43 208 0
-211 208 0
210 -211 -43 0
-210 -211 43 0
210 211 43 -208 0
-210 211 -43 -208 0
-212 208 0
210 -212 43 0
-210 -212 -43 0
210 212 -43 -208 0
-210 212 43 -208 0
213 -209 210 0
213 -209 208 0
-213 209 210 0
-213 209 208 0
213 209 -210 -208 0
-213 -209 -210 -208 0
214 210 -208 0
214 -210 208 0
-214 210 208 0
-214 -210 -208 0
215 -213 52 0
215 -213 202 0
-215 213 52 0
-215 213 202 0
215 -213 205 -56 0
215 -213 -205 56 0
-215 213 205 -56 0
-215 213 -205 56 0
215 213 -52 205 56 -202 0
215 213 -52 -205 -56 -202 0
-215 -213 -52 205 56 -202 0
-215 -213 -52 -205 -56 -202 0
217 52 -205 0
217 -52 205 0
-217 52 205 0
-217 -52 -205 0
216 56 -202 0
216 -56 202 0
-216 56 202 0
-216 -56 -202 0
218 215 -216 0
218 -215 216 0
-218 215 216 0
-218 -215 -216 0
219 -218 52 0
219 -218 216 0
-219 218 52 0
-219 218 216 0
219 218 -52 -216 0
-219 -218 -52 -216 0
220 52 -216 0
220 -52 216 0
-220 52 216 0
-220 -52 -216 0
221 222 -219 0
221 -219 220 0
-221 222 219 0
-221 219 220 0
221 -219 -52 0
-221 219 -52 0
221 -222 219 52 -220 0
-221 -222 -219 52 -220 0
222 -52 220 0
-222 52 220 0
-223 220 0
222 -223 -52 0
-222 -223 52 0
222 223 52 -220 0
-222 223 -52 -220 0
-224 220 0
222 -224 52 0
-222 -224 -52 0
222 224 -52 -220 0
-222 224 52 -220 0
225 -221 222 0
225 -221 220 0
-225 221 222 0
-225 221 220 0
225 221 -222 -220 0
-225 -221 -222 -220 0
226 222 -220 0
226 -222 220 0
-226 222 220 0
-226 -222 -220 0
227 -225 61 0
227 -225 202 0
-227 225 61 0
-227 225 202 0
227 -225 217 -65 0
227 -225 -217 65 0
-227 225 217 -65 0
-227 225 -217 65 0
227 225 -61 217 65 -202 0
227 225 -61 -217 -65 -202 0
-227 -225 -61 217 65 -202 0
-227 -225 -61 -217 -65 -202 0
229 61 -217 0
229 -61 217 0
-229 61 217 0
-229 -61 -217 0
228 65 -202 0
228 -65 202 0
-228 65 202 0
-228 -65 -202 0
230 -227 61 0
230 -227 228 0
-230 227 61 0
-230 227 228 0
230 227 -61 -228 0
-230 -227 -61 -228 0
231 61 -228 0
231 -61 228 0
-231 61 228 0
-231 -61 -228 0
232 233 -230 0
232 -230 231 0
-232 233 230 0
-232 230 231 0
232 -230 -61 0
-232 230 -61 0
232 -233 230 61 -231 0
-232 -233 -230 61 -231 0
233 -61 231 0
-233 61 231 0
-234 231 0
233 -234 -61 0
-233 -234 61 0
233 234 61 -231 0
-233 234 -61 -231 0
-235 231 0
233 -235 61 0
-233 -235 -61 0
233 235 -61 -231 0
-233 235 61 -231 0
236 -232 233 0
236 -232 231 0
-236 232 233 0
-236 232 231 0
236 232 -233 -231 0
-236 -232 -233 -231 0
237 233 -231 0
237 -233 231 0
-237 233 231 0
-237 -233 -231 0
238 -236 69 0
238 -236 202 0
-238 236 69 0
-238 236 202 0
238 -236 229 -73 0
238 -236 -229 73 0
-238 236 229 -73 0
-238 236 -229 73 0
238 236 -69 229 73 -202 0
238 236 -69 -229 -73 -202 0
-238 -236 -69 229 73 -202 0
-238 -236 -69 -229 -73 -202 0
240 69 -229 0
240 -69 229 0
-240 69 229 0
-240 -69 -229 0
239 73 -202 0
239 -73 202 0
-239 73 202 0
-239 -73 -202 0
241 238 -239 0
241 -238 239 0
-241 238 239 0
-241 -238 -239 0
242 -241 69 0
242 -241 239 0
-242 241 69 0
-242 241 239 0
242 241 -69 -239 0
-242 -241 -69 -239 0
243 69 -239 0
243 -69 239 0
-243 69 239 0
-243 -69 -239 0
244 245 -242 0
244 -242 243 0
-244 245 242 0
-244 242 243 0
244 -242 -69 0
-244 242 -69 0
244 -245 242 69 -243 0
-244 -245 -242 69 -243 0
245 -69 243 0
-245 69 243 0
-246 243 0
245 -246 -69 0
-245 -246 69 0
245 246 69 -243 0
-245 246 -69 -243 0
-247 243 0
245 -247 69 0
-245 -247 -69 0
245 247 -69 -243 0
-245 247 69 -243 0
248 -244 245 0
248 -244 243 0
-248 244 245 0
-248 244 243 0
248 244 -245 -243 0
-248 -244 -245 -243 0
249 245 -243 0
249 -245 243 0
-249 245 243 0
-249 -245 -243 0
250 -248 78 0
250 -248 202 0
-250 248 78 0
-250 248 202 0
250 -248 240 -82 0
250 -248 -240 82 0
-250 248 240 -82 0
-250 248 -240 82 0
250 248 -78 240 82 -202 0
250 248 -78 -240 -82 -202 0
-250 -248 -78 240 82 -202 0
-250 -248 -78 -240 -82 -202 0
252 78 -240 0
252 -78 240 0
-252 78 240 0
-252 -78 -240 0
251 82 -202 0
251 -82 202 0
-251 82 202 0
-251 -82 -202 0
253 -250 78 0
253 -250 251 0
-253 250 78 0
-253 250 251 0
253 250 -78 -251 0
-253 -250 -78 -251 0
254 78 -251 0
254 -78 251 0
-254 78 251 0
-254 -78 -251 0
255 256 -253 0
255 -253 254 0
-255 256 253 0
-255 253 254 0
255 -253 -78 0
-255 253 -78 0
255 -256 253 78 -254 0
-255 -256 -253 78 -254 0
256 -78 254 0
-256 78 254 0
-257 254 0
256 -257 -78 0
-256 -257 78 0
256 257 78 -254 0
-256 257 -78 -254 0
-258 254 0
256 -258 78 0
-256 -258 -78 0
256 258 -78 -254 0
-256 258 78 -254 0
259 -255 256 0
259 -255 254 0
-259 255 256 0
-259 255 254 0
259 255 -256 -254 0
-259 -255 -256 -254 0
260 256 -254 0
260 -256 254 0
-260 256 254 0
-260 -256 -254 0
261 -259 86 0
261 -259 202 0
-261 259 86 0
-261 259 202 0
261 -259 252 -90 0
261 -259 -252 90 0
-261 259 252 -90 0
-261 259 -252 90 0
261 259 -86 252 90 -202 0
261 259 -86 -252 -90 -202 0
-261 -259 -86 252 90 -202 0
-261 -259 -86 -252 -90 -202 0
263 86 -252 0
263 -86 252 0
-263 86 252 0
-263 -86 -252 0
262 90 -202 0
262 -90 202 0
-262 90 202 0
-262 -90 -202 0
264 261 -262 0
264 -261 262 0
-264 261 262 0
-264 -261 -262 0
265 -264 86 0
265 -264 262 0
-265 264 86 0
-265 264 262 0
265 264 -86 -262 0
-265 -264 -86 -262 0
266 86 -262 0
266 -86 262 0
-266 86 262 0
-266 -86 -262 0
267 268 -265 0
267 -265 266 0
-267 268 265 0
-267 265 266 0
267 -265 -86 0
-267 265 -86 0
267 -268 265 86 -266 0
-267 -268 -265 86 -266 0
268 -86 266 0
-268 86 266 0
-269 266 0
268 -269 -86 0
-268 -269 86 0
268 269 86 -266 0
-268 269 -86 -266 0
-270 266 0
268 -270 86 0
-268 -270 -86 0
268 270 -86 -266 0
-268 270 86 -266 0
271 -267 268 0
271 -267 266 0
-271 267 268 0
-271 267 266 0
271 267 -268 -266 0
-271 -267 -268 -266 0
272 268 -266 0
272 -268 266 0
-272 268 266 0
-272 -268 -266 0
273 -271 95 0
273 -271 202 0
-273 271 95 0
-273 271 202 0
273 -271 263 -99 0
273 -271 -263 99 0
-273 271 263 -99 0
-273 271 -263 99 0
273 271 -95 263 99 -202 0
273 271 -95 -263 -99 -202 0
-273 -271 -95 263 99 -202 0
-273 -271 -95 -263 -99 -202 0
275 95 -263 0
275 -95 263 0
-275 95 263 0
-275 -95 -263 0
274 99 -202 0
274 -99 202 0
-274 99 202 0
-274 -99 -202 0
276 273 -274 0
276 -273 274 0
-276 273 274 0
-276 -273 -274 0
277 -276 95 0
277 -276 274 0
-277 276 95 0
-277 276 274 0
277 276 -95 -274 0
-277 -276 -95 -274 0
278 95 -274 0
278 -95 274 0
-278 95 274 0
-278 -95 -274 0
279 280 -277 0
279 -277 278 0
-279 280 277 0
-279 277 278 0
279 -277 -95 0
-279 277 -95 0
279 -280 277 95 -278 0
-279 -280 -277 95 -278 0
280 -95 278 0
-280 95 278 0
-281 278 0
280 -281 -95 0
-280 -281 95 0
280 281 95 -278 0
-280 281 -95 -278 0
-282 278 0
280 -282 95 0
-280 -282 -95 0
280 282 -95 -278 0
-280 282 95 -278 0
283 -279 280 0
283 -279 278 0
-283 279 280 0
-283 279 278 0
283 279 -280 -278 0
-283 -279 -280 -278 0
284 280 -278 0
284 -280 278 0
-284 280 278 0
-284 -280 -278 0
285 -283 104 0
285 -283 202 0
-285 283 104 0
-285 283 202 0
285 -283 275 -108 0
285 -283 -275 108 0
-285 283 275 -108 0
-285 283 -275 108 0
285 283 -104 275 108 -202 0
285 283 -104 -275 -108 -202 0
-285 -283 -104 275 108 -202 0
-285 -283 -104 -275 -108 -202 0
287 104 -275 0
287 -104 275 0
-287 104 275 0
-287 -104 -275 0
286 108 -202 0
286 -108 202 0
-286 108 202 0
-286 -108 -202 0
288 -285 104 0
288 -285 286 0
-288 285 104 0
-288 285 286 0
288 285 -104 -286 0
-288 -285 -104 -286 0
289 104 -286 0
289 -104 286 0
-289 104 286 0
-289 -104 -286 0
290 291 -288 0
290 -288 289 0
-290 291 288 0
-290 288 289 0
290 -288 -104 0
-290 288 -104 0
290 -291 288 104 -289 0
-290 -291 -288 104 -289 0
291 -104 289 0
-291 104 289 0
-292 289 0
291 -292 -104 0
-291 -292 104 0
291 292 104 -289 0
-291 292 -104 -289 0
-293 289 0
291 -293 104 0
-291 -293 -104 0
291 293 -104 -289 0
-291 293 104 -289 0
294 -290 291 0
294 -290 289 0
-294 290 291 0
-294 290 289 0
294 290 -291 -289 0
-294 -290 -291 -289 0
295 291 -289 0
295 -291 289 0
-295 291 289 0
-295 -291 -289 0
296 -294 112 0
296 -294 202 0
-296 294 112 0
-296 294 202 0
296 -294 287 -116 0
296 -294 -287 116 0
-296 294 287 -116 0
-296 294 -287 116 0
296 294 -112 287 116 -202 0
296 294 -112 -287 -116 -202 0
-296 -294 -112 287 116 -202 0
-296 -294 -112 -287 -116 -202 0
298 112 -287 0
298 -112 287 0
-298 112 287 0
-298 -112 -287 0
297 116 -202 0
297 -116 202 0
-297 116 202 0
-297 -116 -202 0
299 296 -297 0
299 -296 297 0
-299 296 297 0
-299 -296 -297 0
300 -299 112 0
300 -299 297 0
-300 299 112 0
-300 299 297 0
300 299 -112 -297 0
-300 -299 -112 -297 0
301 112 -297 0
301 -112 297 0
-301 112 297 0
-301 -112 -297 0
302 303 -300 0
302 -300 301 0
-302 303 300 0
-302 300 301 0
302 -300 -112 0
-302 300 -112 0
302 -303 300 112 -301 0
-302 -303 -300 112 -301 0
303 -112 301 0
-303 112 301 0
-304 301 0
303 -304 -112 0
-303 -304 112 0
303 304 112 -301 0
-303 304 -112 -301 0
-305 301 0
303 -305 112 0
-303 -305 -112 0
303 305 -112 -301 0
-303 305 112 -301 0
306 -302 303 0
306 -302 301 0
-306 302 303 0
-306 302 301 0
306 302 -303 -301 0
-306 -302 -303 -301 0
307 303 -301 0
307 -303 301 0
-307 303 301 0
-307 -303 -301 0
308 -306 121 0
308 -306 202 0
-308 306 121 0
-308 306 202 0
308 -306 298 -125 0
308 -306 -298 125 0
-308 306 298 -125 0
-308 306 -298 125 0
308 306 -121 298 125 -202 0
308 306 -121 -298 -125 -202 0
-308 -306 -121 298 125 -202 0
-308 -306 -121 -298 -125 -202 0
310 121 -298 0
310 -121 298 0
-310 121 298 0
-310 -121 -298 0
309 125 -202 0
309 -125 202 0
-309 125 202 0
-309 -125 -202 0
311 308 -309 0
311 -308 309 0
-311 308 309 0
-311 -308 -309 0
312 -311 121 0
312 -311 309 0
-312 311 121 0
-312 311 309 0
312 311 -121 -309 0
-312 -311 -121 -309 0
313 121 -309 0
313 -121 309 0
-313 121 309 0
-313 -121 -309 0
314 315 -312 0
314 -312 313 0
-314 315 312 0
-314 312 313 0
314 -312 -121 0
-314 312 -121 0
314 -315 312 121 -313 0
-314 -315 -312 121 -313 0
315 -121 313 0
-315 121 313 0
-316 313 0
315 -316 -121 0
-315 -316 121 0
315 316 121 -313 0
-315 316 -121 -313 0
-317 313 0
315 -317 121 0
-315 -317 -121 0
315 317 -121 -313 0
-315 317 121 -313 0
318 -314 315 0
318 -314 313 0
-318 314 315 0
-318 314 313 0
318 314 -315 -313 0
-318 -314 -315 -313 0
319 315 -313 0
319 -315 313 0
-319 315 313 0
-319 -315 -313 0
320 -318 130 0
320 -318 202 0
-320 318 130 0
-320 318 202 0
320 -318 310 -134 0
320 -318 -310 134 0
-320 318 310 -134 0
-320 318 -310 134 0
320 318 -130 310 134 -202 0
320 318 -130 -310 -134 -202 0
-320 -318 -130 310 134 -202 0
-320 -318 -130 -310 -134 -202 0
322 130 -310 0
322 -130 310 0
-322 130 310 0
-322 -130 -310 0
321 134 -202 0
321 -134 202 0
-321 134 202 0
-321 -134 -202 0
323 -320 130 0
323 -320 321 0
-323 320 130 0
-323 320 321 0
323 320 -130 -321 0
-323 -320 -130 -321 0
324 130 -321 0
324 -130 321 0
-324 130 321 0
-324 -130 -321 0
325 326 -323 0
325 -323 324 0
-325 326 323 0
-325 323 324 0
325 -323 -130 0
-325 323 -130 0
325 -326 323 130 -324 0
-325 -326 -323 130 -324 0
326 -130 324 0
-326 130 324 0
-327 324 0
326 -327 -130 0
-326 -327 130 0
326 327 130 -324 0
-326 327 -130 -324 0
-328 324 0
326 -328 130 0
-326 -328 -130 0
326 328 -130 -324 0
-326 328 130 -324 0
329 -325 326 0
329 -325 324 0
-329 325 326 0
-329 325 324 0
329 325 -326 -324 0
-329 -325 -326 -324 0
330 326 -324 0
330 -326 324 0
-330 326 324 0
-330 -326 -324 0
331 -329 138 0
331 -329 202 0
-331 329 138 0
-331 329 202 0
331 -329 322 -142 0
331 -329 -322 142 0
-331 329 322 -142 0
-331 329 -322 142 0
331 329 -138 322 142 -202 0
331 329 -138 -322 -142 -202 0
-331 -329 -138 322 142 -202 0
-331 -329 -138 -322 -142 -202 0
333 138 -322 0
333 -138 322 0
-333 138 322 0
-333 -138 -322 0
332 142 -202 0
332 -142 202 0
-332 142 202 0
-332 -142 -202 0
334 331 -332 0
334 -331 332 0
-334 331 332 0
-334 -331 -332 0
335 -334 138 0
335 -334 332 0
-335 334 138 0
-335 334 332 0
335 334 -138 -332 0
-335 -334 -138 -332 0
336 138 -332 0
336 -138 332 0
-336 138 332 0
-336 -138 -332 0
337 338 -335 0
337 -335 336 0
-337 338 335 0
-337 335 336 0
337 -335 -138 0
-337 335 -138 0
337 -338 335 138 -336 0
-337 -338 -335 138 -336 0
338 -138 336 0
-338 138 336 0
-339 336 0
338 -339 -138 0
-338 -339 138 0
338 339 138 -336 0
-338 339 -138 -336 0
-340 336 0
338 -340 138 0
-338 -340 -138 0
338 340 -138 -336 0
-338 340 138 -336 0
341 -337 338 0
341 -337 336 0
-341 337 338 0
-341 337 336 0
341 337 -338 -336 0
-341 -337 -338 -336 0
342 338 -336 0
342 -338 336 0
-342 338 336 0
-342 -338 -336 0
343 -341 147 0
343 -341 202 0
-343 341 147 0
-343 341 202 0
343 -341 333 -151 0
343 -341 -333 151 0
-343 341 333 -151 0
-343 341 -333 151 0
343 341 -147 333 151 -202 0
343 341 -147 -333 -151 -202 0
-343 -341 -147 333 151 -202 0
-343 -341 -147 -333 -151 -202 0
345 147 -333 0
345 -147 333 0
-345 147 333 0
-345 -147 -333 0
344 151 -202 0
344 -151 202 0
-344 151 202 0
-344 -151 -202 0
346 343 -344 0
346 -343 344 0
-346 343 344 0
-346 -343 -344 0
347 -346 147 0
347 -346 344 0
-347 346 147 0
-347 346 344 0
347 346 -147 -344 0
-347 -346 -147 -344 0
348 147 -344 0
348 -147 344 0
-348 147 344 0
-348 -147 -344 0
349 350 -347 0
349 -347 348 0
-349 350 347 0
-349 347 348 0
349 -347 -147 0
-349 347 -147 0
349 -350 347 147 -348 0
-349 -350 -347 147 -348 0
350 -147 348 0
-350 147 348 0
-351 348 0
350 -351 -147 0
-350 -351 147 0
350 351 147 -348 0
-350 351 -147 -348 0
-352 348 0
350 -352 147 0
-350 -352 -147 0
350 352 -147 -348 0
-350 352 147 -348 0
353 -349 350 0
353 -349 348 0
-353 349 350 0
-353 349 348 0
353 349 -350 -348 0
-353 -349 -350 -348 0
354 350 -348 0
354 -350 348 0
-354 350 348 0
-354 -350 -348 0
355 -353 156 0
355 -353 202 0
-355 353 156 0
-355 353 202 0
355 -353 345 -160 0
355 -353 -345 160 0
-355 353 345 -160 0
-355 353 -345 160 0
355 353 -156 345 160 -202 0
355 353 -156 -345 -160 -202 0
-355 -353 -156 345 160 -202 0
-355 -353 -156 -345 -160 -202 0
357 156 -345 0
357 -156 345 0
-357 156 345 0
-357 -156 -345 0
356 160 -202 0
356 -160 202 0
-356 160 202 0
-356 -160 -202 0
358 -355 156 0
358 -355 356 0
-358 355 156 0
-358 355 356 0
358 355 -156 -356 0
-358 -355 -156 -356 0
359 156 -356 0
359 -156 356 0
-359 156 356 0
-359 -156 -356 0
360 361 -358 0
360 -358 359 0
-360 361 358 0
-360 358 359 0
360 -358 -156 0
-360 358 -156 0
360 -361 358 156 -359 0
-360 -361 -358 156 -359 0
361 -156 359 0
-361 156 359 0
-362 359 0
361 -362 -156 0
-361 -362 156 0
361 362 156 -359 0
-361 362 -156 -359 0
-363 359 0
361 -363 156 0
-361 -363 -156 0
361 363 -156 -359 0
-361 363 156 -359 0
364 -360 361 0
364 -360 359 0
-364 360 361 0
-364 360 359 0
364 360 -361 -359 0
-364 -360 -361 -359 0
365 361 -359 0
365 -361 359 0
-365 361 359 0
-365 -361 -359 0
366 -364 164 0
366 -364 202 0
-366 364 164 0
-366 364 202 0
366 -364 357 -168 0
366 -364 -357 168 0
-366 364 357 -168 0
-366 364 -357 168 0
366 364 -164 357 168 -202 0
366 364 -164 -357 -168 -202 0
-366 -364 -164 357 168 -202 0
-366 -364 -164 -357 -168 -202 0
368 164 -357 0
368 -164 357 0
-368 164 357 0
-368 -164 -357 0
367 168 -202 0
367 -168 202 0
-367 168 202 0
-367 -168 -202 0
369 -366 164 0
369 -366 367 0
-369 366 164 0
-369 366 367 0
369 366 -164 -367 0
-369 -366 -164 -367 0
370 164 -367 0
370 -164 367 0
-370 164 367 0
-370 -164 -367 0
371 372 -369 0
371 -369 370 0
-371 372 369 0
-371 369 370 0
371 -369 -164 0
-371 369 -164 0
371 -372 369 164 -370 0
-371 -372 -369 164 -370 0
372 -164 370 0
-372 164 370 0
-373 370 0
372 -373 -164 0
-372 -373 164 0
372 373 164 -370 0
-372 373 -164 -370 0
-374 370 0
372 -374 164 0
-372 -374 -164 0
372 374 -164 -370 0
-372 374 164 -370 0
375 -371 372 0
375 -371 370 0
-375 371 372 0
-375 371 370 0
375 371 -372 -370 0
-375 -371 -372 -370 0
376 372 -370 0
376 -372 370 0
-376 372 370 0
-376 -372 -370 0
377 -375 172 0
377 -375 202 0
-377 375 172 0
-377 375 202 0
377 -375 368 -176 0
377 -375 -368 176 0
-377 375 368 -176 0
-377 375 -368 176 0
377 375 -172 368 176 -202 0
377 375 -172 -368 -176 -202 0
-377 -375 -172 368 176 -202 0
-377 -375 -172 -368 -176 -202 0
379 172 -368 0
379 -172 368 0
-379 172 368 0
-379 -172 -368 0
378 176 -202 0
378 -176 202 0
-378 176 202 0
-378 -176 -202 0
380 377 -378 0
380 -377 378 0
-380 377 378 0
-380 -377 -378 0
381 -380 172 0
381 -380 378 0
-381 380 172 0
-381 380 378 0
381 380 -172 -378 0
-381 -380 -172 -378 0
382 172 -378 0
382 -172 378 0
-382 172 378 0
-382 -172 -378 0
383 384 -381 0
383 -381 382 0
-383 384 381 0
-383 381 382 0
383 -381 -172 0
-383 381 -172 0
383 -384 381 172 -382 0
-383 -384 -381 172 -382 0
384 -172 382 0
-384 172 382 0
-385 382 0
384 -385 -172 0
-384 -385 172 0
384 385 172 -382 0
-384 385 -172 -382 0
-386 382 0
384 -386 172 0
-384 -386 -172 0
384 386 -172 -382 0
-384 386 172 -382 0
387 -383 384 0
387 -383 382 0
-387 383 384 0
-387 383 382 0
387 383 -384 -382 0
-387 -383 -384 -382 0
388 384 -382 0
388 -384 382 0
-388 384 382 0
-388 -384 -382 0
389 -387 181 0
389 -387 202 0
-389 387 181 0
-389 387 202 0
389 -387 379 -185 0
389 -387 -379 185 0
-389 387 379 -185 0
-389 387 -379 185 0
389 387 -181 379 185 -202 0
389 387 -181 -379 -185 -202 0
-389 -387 -181 379 185 -202 0
-389 -387 -181 -379 -185 -202 0
391 181 -379 0
391 -181 379 0
-391 181 379 0
-391 -181 -379 0
390 185 -202 0
390 -185 202 0
-390 185 202 0
-390 -185 -202 0
392 -389 181 0
392 -389 390 0
-392 389 181 0
-392 389 390 0
392 389 -181 -390 0
-392 -389 -181 -390 0
393 181 -390 0
393 -181 390 0
-393 181 390 0
-393 -181 -390 0
394 395 -392 0
394 -392 393 0
-394 395 392 0
-394 392 393 0
394 -392 -181 0
-394 392 -181 0
394 -395 392 181 -393 0
-394 -395 -392 181 -393 0
395 -181 393 0
-395 181 393 0
-396 393 0
395 -396 -181 0
-395 -396 181 0
395 396 181 -393 0
-395 396 -181 -393 0
-397 393 0
395 -397 181 0
-395 -397 -181 0
395 397 -181 -393 0
-395 397 181 -393 0
398 -394 395 0
398 -394 393 0
-398 394 395 0
-398 394 393 0
398 394 -395 -393 0
-398 -394 -395 -393 0
399 395 -393 0
399 -395 393 0
-399 395 393 0
-399 -395 -393 0
400 -398 189 0
400 -398 202 0
-400 398 189 0
-400 398 202 0
400 -398 391 -193 0
400 -398 -391 193 0
-400 398 391 -193 0
-400 398 -391 193 0
400 398 -189 391 193 -202 0
400 398 -189 -391 -193 -202 0
-400 -398 -189 391 193 -202 0
-400 -398 -189 -391 -193 -202 0
402 189 -391 0
402 -189 391 0
-402 189 391 0
-402 -189 -391 0
401 193 -202 0
401 -193 202 0
-401 193 202 0
-401 -193 -202 0
403 -400 189 0
403 -400 401 0
-403 400 189 0
-403 400 401 0
403 400 -189 -401 0
-403 -400 -189 -401 0
404 189 -401 0
404 -189 401 0
-404 189 401 0
-404 -189 -401 0
405 406 -403 0
405 -403 404 0
-405 406 403 0
-405 403 404 0
405 -403 -189 0
-405 403 -189 0
405 -406 403 189 -404 0
-405 -406 -403 189 -404 0
406 -189 404 0
-406 189 404 0
-407 404 0
406 -407 -189 0
-406 -407 189 0
406 407 189 -404 0
-406 407 -189 -404 0
-408 404 0
406 -408 189 0
-406 -408 -189 0
406 408 -189 -404 0
-406 408 189 -404 0
409 -405 406 0
409 -405 404 0
-409 405 406 0
-409 405 404 0
409 405 -406 -404 0
-409 -405 -406 -404 0
410 406 -404 0
410 -406 404 0
-410 406 404 0
-410 -406 -404 0
